
  14    4
  10   10   10   10

   0   0   0   0   0   1 2 
   8   2   0   0   0   3 13 8 3 
   5   2   0   2   1   1 4 
   7   0   1   0  10   1 5 
   5   0   9   0   0   1 6 
   4   7   0   4   0   1 7 
   4  10   0   0   0   1 9 
   2  10   9   0   0   1 9 
   2   0   0  10   5   1 10 
   4   7   0   0   5   1 11 
  10   8   0   7   8   1 12 
   7   0   0   0   7   1 14
   4   0   0  10  10   1 14
   0   0   0   0   0   0 
